# Solution for model obj
# Objective value = 65500
z 65500
x#1#5 0
x#1#4 0
x#1#3 1
x#1#2 1
x#2#1 0
x#2#5 1
x#2#4 0
x#2#3 1
x#3#1 0
x#3#5 1
x#3#4 1
x#3#2 0
x#4#1 1
x#4#5 0
x#4#3 0
x#4#2 1
x#5#1 1
x#5#4 1
x#5#3 0
x#5#2 0
f#1#2#5 21000
f#1#2#4 0
f#1#2#3 20500
f#1#5#2 0
f#1#4#2 0
f#1#3#2 0
f#1#1#2 65500
f#1#3#5 0
f#1#3#4 23000
f#1#5#3 0
f#1#4#3 0
f#1#1#3 45500
f#1#4#5 0
f#1#5#4 0
f#1#1#4 0
f#1#1#5 0
f#2#3#5 0
f#2#3#4 0
f#2#3#1 0
f#2#5#3 0
f#2#4#3 0
f#2#2#3 0
f#2#1#3 0
f#2#4#5 0
f#2#4#1 0
f#2#5#4 0
f#2#2#4 0
f#2#1#4 0
f#2#5#1 0
f#2#2#5 21000
f#2#1#5 0
f#2#2#1 0
f#3#2#5 0
f#3#2#4 0
f#3#2#1 0
f#3#5#2 0
f#3#4#2 0
f#3#3#2 0
f#3#1#2 0
f#3#4#5 0
f#3#4#1 11000
f#3#5#4 0
f#3#3#4 31000
f#3#1#4 0
f#3#5#1 5000
f#3#3#5 49000
f#3#1#5 0
f#3#3#1 0
f#4#2#5 23500
f#4#2#3 22000
f#4#2#1 0
f#4#5#2 0
f#4#4#2 65500
f#4#3#2 0
f#4#1#2 0
f#4#3#5 16500
f#4#3#1 0
f#4#5#3 0
f#4#4#3 0
f#4#1#3 12500
f#4#5#1 0
f#4#4#5 0
f#4#1#5 0
f#4#4#1 54500
f#5#2#4 0
f#5#2#3 0
f#5#2#1 0
f#5#5#2 0
f#5#4#2 0
f#5#3#2 0
f#5#1#2 0
f#5#3#4 0
f#5#3#1 0
f#5#5#3 0
f#5#4#3 0
f#5#1#3 0
f#5#4#1 0
f#5#5#4 40000
f#5#1#4 0
f#5#5#1 0
